\Problem name: IloCplex

Minimize
 obj: 0.081143532 Y1.0.1.0 + 0.0081143532 Y1.0.1.1 + 0.00081143532 Y1.0.1.2
      + 0.000081143532 Y1.0.1.3 + 0.063111636 Y1.0.2.0 + 0.0063111636 Y1.0.2.1
      + 0.00063111636 Y1.0.2.2 + 0.000063111636 Y1.0.2.3 + 0.08264619 Y1.0.3.0
      + 0.008264619 Y1.0.3.1 + 0.0008264619 Y1.0.3.2 + 0.00008264619 Y1.0.3.3
      + 1.1269935 Y1.0.4.0 + 0.11269935 Y1.0.4.1 + 0.011269935 Y1.0.4.2
      + 0.0011269935 Y1.0.4.3 + 0.9767277 Y1.0.5.0 + 0.09767277 Y1.0.5.1
      + 0.009767277 Y1.0.5.2 + 0.0009767277 Y1.0.5.3 + 0.06010632 Y1.0.6.0
      + 0.006010632 Y1.0.6.1 + 0.0006010632 Y1.0.6.2 + 0.00006010632 Y1.0.6.3
      + 0.0751329 Y1.0.7.0 + 0.00751329 Y1.0.7.1 + 0.000751329 Y1.0.7.2
      + 0.0000751329 Y1.0.7.3 + 0.9015948 Y1.0.8.0 + 0.09015948 Y1.0.8.1
      + 0.009015948 Y1.0.8.2 + 0.0009015948 Y1.0.8.3 + 0.066116952 Y1.0.9.0
      + 0.0066116952 Y1.0.9.1 + 0.00066116952 Y1.0.9.2
      + 0.000066116952 Y1.0.9.3 + 0.160561764 Y1.1.0.0 + 0.0160561764 Y1.1.0.1
      + 0.00160561764 Y1.1.0.2 + 0.000160561764 Y1.1.0.3 + 0.214082352 Y1.1.2.0
      + 0.0214082352 Y1.1.2.1 + 0.00214082352 Y1.1.2.2
      + 0.000214082352 Y1.1.2.3 + 0.306256698 Y1.1.3.0 + 0.0306256698 Y1.1.3.1
      + 0.00306256698 Y1.1.3.2 + 0.000306256698 Y1.1.3.3 + 5.7980637 Y1.1.4.0
      + 0.57980637 Y1.1.4.1 + 0.057980637 Y1.1.4.2 + 0.0057980637 Y1.1.4.3
      + 0.145694934 Y1.1.5.0 + 0.0145694934 Y1.1.5.1 + 0.00145694934 Y1.1.5.2
      + 0.000145694934 Y1.1.5.3 + 0.261656208 Y1.1.6.0 + 0.0261656208 Y1.1.6.1
      + 0.00261656208 Y1.1.6.2 + 0.000261656208 Y1.1.6.3 + 0.279496404 Y1.1.7.0
      + 0.0279496404 Y1.1.7.1 + 0.00279496404 Y1.1.7.2
      + 0.000279496404 Y1.1.7.3 + 0.166508496 Y1.1.8.0 + 0.0166508496 Y1.1.8.1
      + 0.00166508496 Y1.1.8.2 + 0.000166508496 Y1.1.8.3 + 0.261656208 Y1.1.9.0
      + 0.0261656208 Y1.1.9.1 + 0.00261656208 Y1.1.9.2
      + 0.000261656208 Y1.1.9.3 + 0.103395852 Y1.2.0.0 + 0.0103395852 Y1.2.0.1
      + 0.00103395852 Y1.2.0.2 + 0.000103395852 Y1.2.0.3 + 0.177250032 Y1.2.1.0
      + 0.0177250032 Y1.2.1.1 + 0.00177250032 Y1.2.1.2
      + 0.000177250032 Y1.2.1.3 + 0.140322942 Y1.2.3.0 + 0.0140322942 Y1.2.3.1
      + 0.00140322942 Y1.2.3.2 + 0.000140322942 Y1.2.3.3 + 4.0619799 Y1.2.4.0
      + 0.40619799 Y1.2.4.1 + 0.040619799 Y1.2.4.2 + 0.0040619799 Y1.2.4.3
      + 0.132937524 Y1.2.5.0 + 0.0132937524 Y1.2.5.1 + 0.00132937524 Y1.2.5.2
      + 0.000132937524 Y1.2.5.3 + 0.115704882 Y1.2.6.0 + 0.0115704882 Y1.2.6.1
      + 0.00115704882 Y1.2.6.2 + 0.000115704882 Y1.2.6.3 + 0.100934046 Y1.2.7.0
      + 0.0100934046 Y1.2.7.1 + 0.00100934046 Y1.2.7.2
      + 0.000100934046 Y1.2.7.3 + 0.132937524 Y1.2.8.0 + 0.0132937524 Y1.2.8.1
      + 0.00132937524 Y1.2.8.2 + 0.000132937524 Y1.2.8.3 + 0.093548628 Y1.2.9.0
      + 0.0093548628 Y1.2.9.1 + 0.00093548628 Y1.2.9.2
      + 0.000093548628 Y1.2.9.3 + 5.363226 Y1.3.0.0 + 0.5363226 Y1.3.0.1
      + 0.05363226 Y1.3.0.2 + 0.005363226 Y1.3.0.3 + 0.200877192 Y1.3.1.0
      + 0.0200877192 Y1.3.1.1 + 0.00200877192 Y1.3.1.2
      + 0.000200877192 Y1.3.1.3 + 5.5582524 Y1.3.2.0 + 0.55582524 Y1.3.2.1
      + 0.055582524 Y1.3.2.2 + 0.0055582524 Y1.3.2.3 + 6.2408448 Y1.3.4.0
      + 0.62408448 Y1.3.4.1 + 0.062408448 Y1.3.4.2 + 0.0062408448 Y1.3.4.3
      + 0.132617952 Y1.3.5.0 + 0.0132617952 Y1.3.5.1 + 0.00132617952 Y1.3.5.2
      + 0.000132617952 Y1.3.5.3 + 1.462698 Y1.3.6.0 + 0.1462698 Y1.3.6.1
      + 0.01462698 Y1.3.6.2 + 0.001462698 Y1.3.6.3 + 1.7552376 Y1.3.7.0
      + 0.17552376 Y1.3.7.1 + 0.017552376 Y1.3.7.2 + 0.0017552376 Y1.3.7.3
      + 6.0458184 Y1.3.8.0 + 0.60458184 Y1.3.8.1 + 0.060458184 Y1.3.8.2
      + 0.0060458184 Y1.3.8.3 + 1.8527508 Y1.3.9.0 + 0.18527508 Y1.3.9.1
      + 0.018527508 Y1.3.9.2 + 0.0018527508 Y1.3.9.3 + 0.03596805 Y1.4.0.0
      + 0.003596805 Y1.4.0.1 + 0.0003596805 Y1.4.0.2 + 0.00003596805 Y1.4.0.3
      + 0.09351693 Y1.4.1.0 + 0.009351693 Y1.4.1.1 + 0.0009351693 Y1.4.1.2
      + 0.00009351693 Y1.4.1.3 + 0.07912971 Y1.4.2.0 + 0.007912971 Y1.4.2.1
      + 0.0007912971 Y1.4.2.2 + 0.00007912971 Y1.4.2.3 + 0.15346368 Y1.4.3.0
      + 0.015346368 Y1.4.3.1 + 0.0015346368 Y1.4.3.2 + 0.00015346368 Y1.4.3.3
      + 0.05035527 Y1.4.5.0 + 0.005035527 Y1.4.5.1 + 0.0005035527 Y1.4.5.2
      + 0.00005035527 Y1.4.5.3 + 0.11749563 Y1.4.6.0 + 0.011749563 Y1.4.6.1
      + 0.0011749563 Y1.4.6.2 + 0.00011749563 Y1.4.6.3 + 0.13188285 Y1.4.7.0
      + 0.013188285 Y1.4.7.1 + 0.0013188285 Y1.4.7.2 + 0.00013188285 Y1.4.7.3
      + 0.05994675 Y1.4.8.0 + 0.005994675 Y1.4.8.1 + 0.0005994675 Y1.4.8.2
      + 0.00005994675 Y1.4.8.3 + 0.11749563 Y1.4.9.0 + 0.011749563 Y1.4.9.1
      + 0.0011749563 Y1.4.9.2 + 0.00011749563 Y1.4.9.3 + 1.6833024 Y1.5.0.0
      + 0.16833024 Y1.5.0.1 + 0.016833024 Y1.5.0.2 + 0.0016833024 Y1.5.0.3
      + 0.126895104 Y1.5.1.0 + 0.0126895104 Y1.5.1.1 + 0.00126895104 Y1.5.1.2
      + 0.000126895104 Y1.5.1.3 + 0.139843584 Y1.5.2.0 + 0.0139843584 Y1.5.2.1
      + 0.00139843584 Y1.5.2.2 + 0.000139843584 Y1.5.2.3 + 0.176099328 Y1.5.3.0
      + 0.0176099328 Y1.5.3.1 + 0.00176099328 Y1.5.3.2
      + 0.000176099328 Y1.5.3.3 + 2.7191808 Y1.5.4.0 + 0.27191808 Y1.5.4.1
      + 0.027191808 Y1.5.4.2 + 0.0027191808 Y1.5.4.3 + 0.137253888 Y1.5.6.0
      + 0.0137253888 Y1.5.6.1 + 0.00137253888 Y1.5.6.2
      + 0.000137253888 Y1.5.6.3 + 0.163150848 Y1.5.7.0 + 0.0163150848 Y1.5.7.1
      + 0.00163150848 Y1.5.7.2 + 0.000163150848 Y1.5.7.3 + 0.9063936 Y1.5.8.0
      + 0.09063936 Y1.5.8.1 + 0.009063936 Y1.5.8.2 + 0.0009063936 Y1.5.8.3
      + 0.147612672 Y1.5.9.0 + 0.0147612672 Y1.5.9.1 + 0.00147612672 Y1.5.9.2
      + 0.000147612672 Y1.5.9.3 + 1.534644 Y1.6.0.0 + 0.1534644 Y1.6.0.1
      + 0.01534644 Y1.6.0.2 + 0.001534644 Y1.6.0.3 + 0.067524336 Y1.6.1.0
      + 0.0067524336 Y1.6.1.1 + 0.00067524336 Y1.6.1.2
      + 0.000067524336 Y1.6.1.3 + 1.8032067 Y1.6.2.0 + 0.18032067 Y1.6.2.1
      + 0.018032067 Y1.6.2.2 + 0.0018032067 Y1.6.2.3 + 0.5754915 Y1.6.3.0
      + 0.05754915 Y1.6.3.1 + 0.005754915 Y1.6.3.2 + 0.0005754915 Y1.6.3.3
      + 1.8799389 Y1.6.4.0 + 0.18799389 Y1.6.4.1 + 0.018799389 Y1.6.4.2
      + 0.0018799389 Y1.6.4.3 + 0.040668066 Y1.6.5.0 + 0.0040668066 Y1.6.5.1
      + 0.00040668066 Y1.6.5.2 + 0.000040668066 Y1.6.5.3 + 0.6522237 Y1.6.7.0
      + 0.06522237 Y1.6.7.1 + 0.006522237 Y1.6.7.2 + 0.0006522237 Y1.6.7.3
      + 1.8032067 Y1.6.8.0 + 0.18032067 Y1.6.8.1 + 0.018032067 Y1.6.8.2
      + 0.0018032067 Y1.6.8.3 + 0.4987593 Y1.6.9.0 + 0.04987593 Y1.6.9.1
      + 0.004987593 Y1.6.9.2 + 0.0004987593 Y1.6.9.3 + 3.99645 Y1.7.0.0
      + 0.399645 Y1.7.0.1 + 0.0399645 Y1.7.0.2 + 0.00399645 Y1.7.0.3
      + 0.15026652 Y1.7.1.0 + 0.015026652 Y1.7.1.1 + 0.0015026652 Y1.7.1.2
      + 0.00015026652 Y1.7.1.3 + 3.277089 Y1.7.2.0 + 0.3277089 Y1.7.2.1
      + 0.03277089 Y1.7.2.2 + 0.003277089 Y1.7.2.3 + 1.438722 Y1.7.3.0
      + 0.1438722 Y1.7.3.1 + 0.01438722 Y1.7.3.2 + 0.001438722 Y1.7.3.3
      + 4.396095 Y1.7.4.0 + 0.4396095 Y1.7.4.1 + 0.04396095 Y1.7.4.2
      + 0.004396095 Y1.7.4.3 + 0.10071054 Y1.7.5.0 + 0.010071054 Y1.7.5.1
      + 0.0010071054 Y1.7.5.2 + 0.00010071054 Y1.7.5.3 + 1.358793 Y1.7.6.0
      + 0.1358793 Y1.7.6.1 + 0.01358793 Y1.7.6.2 + 0.001358793 Y1.7.6.3
      + 0.09911196 Y1.7.8.0 + 0.009911196 Y1.7.8.1 + 0.0009911196 Y1.7.8.2
      + 0.00009911196 Y1.7.8.3 + 0.479574 Y1.7.9.0 + 0.0479574 Y1.7.9.1
      + 0.00479574 Y1.7.9.2 + 0.000479574 Y1.7.9.3 + 0.7481376 Y1.8.0.0
      + 0.07481376 Y1.8.0.1 + 0.007481376 Y1.8.0.2 + 0.0007481376 Y1.8.0.3
      + 0.069826176 Y1.8.1.0 + 0.0069826176 Y1.8.1.1 + 0.00069826176 Y1.8.1.2
      + 0.000069826176 Y1.8.1.3 + 0.067332384 Y1.8.2.0 + 0.0067332384 Y1.8.2.1
      + 0.00067332384 Y1.8.2.2 + 0.000067332384 Y1.8.2.3 + 0.077307552 Y1.8.3.0
      + 0.0077307552 Y1.8.3.1 + 0.00077307552 Y1.8.3.2
      + 0.000077307552 Y1.8.3.3 + 1.55862 Y1.8.4.0 + 0.155862 Y1.8.4.1
      + 0.0155862 Y1.8.4.2 + 0.00155862 Y1.8.4.3 + 0.4364136 Y1.8.5.0
      + 0.04364136 Y1.8.5.1 + 0.004364136 Y1.8.5.2 + 0.0004364136 Y1.8.5.3
      + 0.058604112 Y1.8.6.0 + 0.0058604112 Y1.8.6.1 + 0.00058604112 Y1.8.6.2
      + 0.000058604112 Y1.8.6.3 + 0.077307552 Y1.8.7.0 + 0.0077307552 Y1.8.7.1
      + 0.00077307552 Y1.8.7.2 + 0.000077307552 Y1.8.7.3 + 0.069826176 Y1.8.9.0
      + 0.0069826176 Y1.8.9.1 + 0.00069826176 Y1.8.9.2
      + 0.000069826176 Y1.8.9.3 + 1.1253924 Y1.9.0.0 + 0.11253924 Y1.9.0.1
      + 0.011253924 Y1.9.0.2 + 0.0011253924 Y1.9.0.3 + 0.045015696 Y1.9.1.0
      + 0.0045015696 Y1.9.1.1 + 0.00045015696 Y1.9.1.2
      + 0.000045015696 Y1.9.1.3 + 0.9719298 Y1.9.2.0 + 0.09719298 Y1.9.2.1
      + 0.009719298 Y1.9.2.2 + 0.0009719298 Y1.9.2.3 + 0.4859649 Y1.9.3.0
      + 0.04859649 Y1.9.3.1 + 0.004859649 Y1.9.3.2 + 0.0004859649 Y1.9.3.3
      + 1.2532779 Y1.9.4.0 + 0.12532779 Y1.9.4.1 + 0.012532779 Y1.9.4.2
      + 0.0012532779 Y1.9.4.3 + 0.029157894 Y1.9.5.0 + 0.0029157894 Y1.9.5.1
      + 0.00029157894 Y1.9.5.2 + 0.000029157894 Y1.9.5.3 + 0.3325023 Y1.9.6.0
      + 0.03325023 Y1.9.6.1 + 0.003325023 Y1.9.6.2 + 0.0003325023 Y1.9.6.3
      + 0.1534626 Y1.9.7.0 + 0.01534626 Y1.9.7.1 + 0.001534626 Y1.9.7.2
      + 0.0001534626 Y1.9.7.3 + 0.028646352 Y1.9.8.0 + 0.0028646352 Y1.9.8.1
      + 0.00028646352 Y1.9.8.2 + 0.000028646352 Y1.9.8.3 + id1832
Subject To
 id1025: X1.0 + X1.1 + X1.2 + X1.3 + X1.4 + X1.5 + X1.6 + X1.7 + X1.8 + X1.9
          = 4
 id1328: X1.0 - Y1.0.0.0 - Y1.0.0.1 - Y1.0.0.2 - Y1.0.0.3  = 0
 id1331: X1.1 - Y1.0.1.0 - Y1.0.1.1 - Y1.0.1.2 - Y1.0.1.3  = 0
 id1334: X1.2 - Y1.0.2.0 - Y1.0.2.1 - Y1.0.2.2 - Y1.0.2.3  = 0
 id1337: X1.3 - Y1.0.3.0 - Y1.0.3.1 - Y1.0.3.2 - Y1.0.3.3  = 0
 id1340: X1.4 - Y1.0.4.0 - Y1.0.4.1 - Y1.0.4.2 - Y1.0.4.3  = 0
 id1343: X1.5 - Y1.0.5.0 - Y1.0.5.1 - Y1.0.5.2 - Y1.0.5.3  = 0
 id1346: X1.6 - Y1.0.6.0 - Y1.0.6.1 - Y1.0.6.2 - Y1.0.6.3  = 0
 id1349: X1.7 - Y1.0.7.0 - Y1.0.7.1 - Y1.0.7.2 - Y1.0.7.3  = 0
 id1352: X1.8 - Y1.0.8.0 - Y1.0.8.1 - Y1.0.8.2 - Y1.0.8.3  = 0
 id1355: X1.9 - Y1.0.9.0 - Y1.0.9.1 - Y1.0.9.2 - Y1.0.9.3  = 0
 id1358: X1.0 - Y1.1.0.0 - Y1.1.0.1 - Y1.1.0.2 - Y1.1.0.3  = 0
 id1361: X1.1 - Y1.1.1.0 - Y1.1.1.1 - Y1.1.1.2 - Y1.1.1.3  = 0
 id1364: X1.2 - Y1.1.2.0 - Y1.1.2.1 - Y1.1.2.2 - Y1.1.2.3  = 0
 id1367: X1.3 - Y1.1.3.0 - Y1.1.3.1 - Y1.1.3.2 - Y1.1.3.3  = 0
 id1370: X1.4 - Y1.1.4.0 - Y1.1.4.1 - Y1.1.4.2 - Y1.1.4.3  = 0
 id1373: X1.5 - Y1.1.5.0 - Y1.1.5.1 - Y1.1.5.2 - Y1.1.5.3  = 0
 id1376: X1.6 - Y1.1.6.0 - Y1.1.6.1 - Y1.1.6.2 - Y1.1.6.3  = 0
 id1379: X1.7 - Y1.1.7.0 - Y1.1.7.1 - Y1.1.7.2 - Y1.1.7.3  = 0
 id1382: X1.8 - Y1.1.8.0 - Y1.1.8.1 - Y1.1.8.2 - Y1.1.8.3  = 0
 id1385: X1.9 - Y1.1.9.0 - Y1.1.9.1 - Y1.1.9.2 - Y1.1.9.3  = 0
 id1388: X1.0 - Y1.2.0.0 - Y1.2.0.1 - Y1.2.0.2 - Y1.2.0.3  = 0
 id1391: X1.1 - Y1.2.1.0 - Y1.2.1.1 - Y1.2.1.2 - Y1.2.1.3  = 0
 id1394: X1.2 - Y1.2.2.0 - Y1.2.2.1 - Y1.2.2.2 - Y1.2.2.3  = 0
 id1397: X1.3 - Y1.2.3.0 - Y1.2.3.1 - Y1.2.3.2 - Y1.2.3.3  = 0
 id1400: X1.4 - Y1.2.4.0 - Y1.2.4.1 - Y1.2.4.2 - Y1.2.4.3  = 0
 id1403: X1.5 - Y1.2.5.0 - Y1.2.5.1 - Y1.2.5.2 - Y1.2.5.3  = 0
 id1406: X1.6 - Y1.2.6.0 - Y1.2.6.1 - Y1.2.6.2 - Y1.2.6.3  = 0
 id1409: X1.7 - Y1.2.7.0 - Y1.2.7.1 - Y1.2.7.2 - Y1.2.7.3  = 0
 id1412: X1.8 - Y1.2.8.0 - Y1.2.8.1 - Y1.2.8.2 - Y1.2.8.3  = 0
 id1415: X1.9 - Y1.2.9.0 - Y1.2.9.1 - Y1.2.9.2 - Y1.2.9.3  = 0
 id1418: X1.0 - Y1.3.0.0 - Y1.3.0.1 - Y1.3.0.2 - Y1.3.0.3  = 0
 id1421: X1.1 - Y1.3.1.0 - Y1.3.1.1 - Y1.3.1.2 - Y1.3.1.3  = 0
 id1424: X1.2 - Y1.3.2.0 - Y1.3.2.1 - Y1.3.2.2 - Y1.3.2.3  = 0
 id1427: X1.3 - Y1.3.3.0 - Y1.3.3.1 - Y1.3.3.2 - Y1.3.3.3  = 0
 id1430: X1.4 - Y1.3.4.0 - Y1.3.4.1 - Y1.3.4.2 - Y1.3.4.3  = 0
 id1433: X1.5 - Y1.3.5.0 - Y1.3.5.1 - Y1.3.5.2 - Y1.3.5.3  = 0
 id1436: X1.6 - Y1.3.6.0 - Y1.3.6.1 - Y1.3.6.2 - Y1.3.6.3  = 0
 id1439: X1.7 - Y1.3.7.0 - Y1.3.7.1 - Y1.3.7.2 - Y1.3.7.3  = 0
 id1442: X1.8 - Y1.3.8.0 - Y1.3.8.1 - Y1.3.8.2 - Y1.3.8.3  = 0
 id1445: X1.9 - Y1.3.9.0 - Y1.3.9.1 - Y1.3.9.2 - Y1.3.9.3  = 0
 id1448: X1.0 - Y1.4.0.0 - Y1.4.0.1 - Y1.4.0.2 - Y1.4.0.3  = 0
 id1451: X1.1 - Y1.4.1.0 - Y1.4.1.1 - Y1.4.1.2 - Y1.4.1.3  = 0
 id1454: X1.2 - Y1.4.2.0 - Y1.4.2.1 - Y1.4.2.2 - Y1.4.2.3  = 0
 id1457: X1.3 - Y1.4.3.0 - Y1.4.3.1 - Y1.4.3.2 - Y1.4.3.3  = 0
 id1460: X1.4 - Y1.4.4.0 - Y1.4.4.1 - Y1.4.4.2 - Y1.4.4.3  = 0
 id1463: X1.5 - Y1.4.5.0 - Y1.4.5.1 - Y1.4.5.2 - Y1.4.5.3  = 0
 id1466: X1.6 - Y1.4.6.0 - Y1.4.6.1 - Y1.4.6.2 - Y1.4.6.3  = 0
 id1469: X1.7 - Y1.4.7.0 - Y1.4.7.1 - Y1.4.7.2 - Y1.4.7.3  = 0
 id1472: X1.8 - Y1.4.8.0 - Y1.4.8.1 - Y1.4.8.2 - Y1.4.8.3  = 0
 id1475: X1.9 - Y1.4.9.0 - Y1.4.9.1 - Y1.4.9.2 - Y1.4.9.3  = 0
 id1478: X1.0 - Y1.5.0.0 - Y1.5.0.1 - Y1.5.0.2 - Y1.5.0.3  = 0
 id1481: X1.1 - Y1.5.1.0 - Y1.5.1.1 - Y1.5.1.2 - Y1.5.1.3  = 0
 id1484: X1.2 - Y1.5.2.0 - Y1.5.2.1 - Y1.5.2.2 - Y1.5.2.3  = 0
 id1487: X1.3 - Y1.5.3.0 - Y1.5.3.1 - Y1.5.3.2 - Y1.5.3.3  = 0
 id1490: X1.4 - Y1.5.4.0 - Y1.5.4.1 - Y1.5.4.2 - Y1.5.4.3  = 0
 id1493: X1.5 - Y1.5.5.0 - Y1.5.5.1 - Y1.5.5.2 - Y1.5.5.3  = 0
 id1496: X1.6 - Y1.5.6.0 - Y1.5.6.1 - Y1.5.6.2 - Y1.5.6.3  = 0
 id1499: X1.7 - Y1.5.7.0 - Y1.5.7.1 - Y1.5.7.2 - Y1.5.7.3  = 0
 id1502: X1.8 - Y1.5.8.0 - Y1.5.8.1 - Y1.5.8.2 - Y1.5.8.3  = 0
 id1505: X1.9 - Y1.5.9.0 - Y1.5.9.1 - Y1.5.9.2 - Y1.5.9.3  = 0
 id1508: X1.0 - Y1.6.0.0 - Y1.6.0.1 - Y1.6.0.2 - Y1.6.0.3  = 0
 id1511: X1.1 - Y1.6.1.0 - Y1.6.1.1 - Y1.6.1.2 - Y1.6.1.3  = 0
 id1514: X1.2 - Y1.6.2.0 - Y1.6.2.1 - Y1.6.2.2 - Y1.6.2.3  = 0
 id1517: X1.3 - Y1.6.3.0 - Y1.6.3.1 - Y1.6.3.2 - Y1.6.3.3  = 0
 id1520: X1.4 - Y1.6.4.0 - Y1.6.4.1 - Y1.6.4.2 - Y1.6.4.3  = 0
 id1523: X1.5 - Y1.6.5.0 - Y1.6.5.1 - Y1.6.5.2 - Y1.6.5.3  = 0
 id1526: X1.6 - Y1.6.6.0 - Y1.6.6.1 - Y1.6.6.2 - Y1.6.6.3  = 0
 id1529: X1.7 - Y1.6.7.0 - Y1.6.7.1 - Y1.6.7.2 - Y1.6.7.3  = 0
 id1532: X1.8 - Y1.6.8.0 - Y1.6.8.1 - Y1.6.8.2 - Y1.6.8.3  = 0
 id1535: X1.9 - Y1.6.9.0 - Y1.6.9.1 - Y1.6.9.2 - Y1.6.9.3  = 0
 id1538: X1.0 - Y1.7.0.0 - Y1.7.0.1 - Y1.7.0.2 - Y1.7.0.3  = 0
 id1541: X1.1 - Y1.7.1.0 - Y1.7.1.1 - Y1.7.1.2 - Y1.7.1.3  = 0
 id1544: X1.2 - Y1.7.2.0 - Y1.7.2.1 - Y1.7.2.2 - Y1.7.2.3  = 0
 id1547: X1.3 - Y1.7.3.0 - Y1.7.3.1 - Y1.7.3.2 - Y1.7.3.3  = 0
 id1550: X1.4 - Y1.7.4.0 - Y1.7.4.1 - Y1.7.4.2 - Y1.7.4.3  = 0
 id1553: X1.5 - Y1.7.5.0 - Y1.7.5.1 - Y1.7.5.2 - Y1.7.5.3  = 0
 id1556: X1.6 - Y1.7.6.0 - Y1.7.6.1 - Y1.7.6.2 - Y1.7.6.3  = 0
 id1559: X1.7 - Y1.7.7.0 - Y1.7.7.1 - Y1.7.7.2 - Y1.7.7.3  = 0
 id1562: X1.8 - Y1.7.8.0 - Y1.7.8.1 - Y1.7.8.2 - Y1.7.8.3  = 0
 id1565: X1.9 - Y1.7.9.0 - Y1.7.9.1 - Y1.7.9.2 - Y1.7.9.3  = 0
 id1568: X1.0 - Y1.8.0.0 - Y1.8.0.1 - Y1.8.0.2 - Y1.8.0.3  = 0
 id1571: X1.1 - Y1.8.1.0 - Y1.8.1.1 - Y1.8.1.2 - Y1.8.1.3  = 0
 id1574: X1.2 - Y1.8.2.0 - Y1.8.2.1 - Y1.8.2.2 - Y1.8.2.3  = 0
 id1577: X1.3 - Y1.8.3.0 - Y1.8.3.1 - Y1.8.3.2 - Y1.8.3.3  = 0
 id1580: X1.4 - Y1.8.4.0 - Y1.8.4.1 - Y1.8.4.2 - Y1.8.4.3  = 0
 id1583: X1.5 - Y1.8.5.0 - Y1.8.5.1 - Y1.8.5.2 - Y1.8.5.3  = 0
 id1586: X1.6 - Y1.8.6.0 - Y1.8.6.1 - Y1.8.6.2 - Y1.8.6.3  = 0
 id1589: X1.7 - Y1.8.7.0 - Y1.8.7.1 - Y1.8.7.2 - Y1.8.7.3  = 0
 id1592: X1.8 - Y1.8.8.0 - Y1.8.8.1 - Y1.8.8.2 - Y1.8.8.3  = 0
 id1595: X1.9 - Y1.8.9.0 - Y1.8.9.1 - Y1.8.9.2 - Y1.8.9.3  = 0
 id1598: X1.0 - Y1.9.0.0 - Y1.9.0.1 - Y1.9.0.2 - Y1.9.0.3  = 0
 id1601: X1.1 - Y1.9.1.0 - Y1.9.1.1 - Y1.9.1.2 - Y1.9.1.3  = 0
 id1604: X1.2 - Y1.9.2.0 - Y1.9.2.1 - Y1.9.2.2 - Y1.9.2.3  = 0
 id1607: X1.3 - Y1.9.3.0 - Y1.9.3.1 - Y1.9.3.2 - Y1.9.3.3  = 0
 id1610: X1.4 - Y1.9.4.0 - Y1.9.4.1 - Y1.9.4.2 - Y1.9.4.3  = 0
 id1613: X1.5 - Y1.9.5.0 - Y1.9.5.1 - Y1.9.5.2 - Y1.9.5.3  = 0
 id1616: X1.6 - Y1.9.6.0 - Y1.9.6.1 - Y1.9.6.2 - Y1.9.6.3  = 0
 id1619: X1.7 - Y1.9.7.0 - Y1.9.7.1 - Y1.9.7.2 - Y1.9.7.3  = 0
 id1622: X1.8 - Y1.9.8.0 - Y1.9.8.1 - Y1.9.8.2 - Y1.9.8.3  = 0
 id1625: X1.9 - Y1.9.9.0 - Y1.9.9.1 - Y1.9.9.2 - Y1.9.9.3  = 0
 id1647: Y1.0.0.0 + Y1.0.1.0 + Y1.0.2.0 + Y1.0.3.0 + Y1.0.4.0 + Y1.0.5.0
         + Y1.0.6.0 + Y1.0.7.0 + Y1.0.8.0 + Y1.0.9.0  = 1
 id1649: Y1.0.0.1 + Y1.0.1.1 + Y1.0.2.1 + Y1.0.3.1 + Y1.0.4.1 + Y1.0.5.1
         + Y1.0.6.1 + Y1.0.7.1 + Y1.0.8.1 + Y1.0.9.1  = 1
 id1651: Y1.0.0.2 + Y1.0.1.2 + Y1.0.2.2 + Y1.0.3.2 + Y1.0.4.2 + Y1.0.5.2
         + Y1.0.6.2 + Y1.0.7.2 + Y1.0.8.2 + Y1.0.9.2  = 1
 id1653: Y1.0.0.3 + Y1.0.1.3 + Y1.0.2.3 + Y1.0.3.3 + Y1.0.4.3 + Y1.0.5.3
         + Y1.0.6.3 + Y1.0.7.3 + Y1.0.8.3 + Y1.0.9.3  = 1
 id1655: Y1.1.0.0 + Y1.1.1.0 + Y1.1.2.0 + Y1.1.3.0 + Y1.1.4.0 + Y1.1.5.0
         + Y1.1.6.0 + Y1.1.7.0 + Y1.1.8.0 + Y1.1.9.0  = 1
 id1657: Y1.1.0.1 + Y1.1.1.1 + Y1.1.2.1 + Y1.1.3.1 + Y1.1.4.1 + Y1.1.5.1
         + Y1.1.6.1 + Y1.1.7.1 + Y1.1.8.1 + Y1.1.9.1  = 1
 id1659: Y1.1.0.2 + Y1.1.1.2 + Y1.1.2.2 + Y1.1.3.2 + Y1.1.4.2 + Y1.1.5.2
         + Y1.1.6.2 + Y1.1.7.2 + Y1.1.8.2 + Y1.1.9.2  = 1
 id1661: Y1.1.0.3 + Y1.1.1.3 + Y1.1.2.3 + Y1.1.3.3 + Y1.1.4.3 + Y1.1.5.3
         + Y1.1.6.3 + Y1.1.7.3 + Y1.1.8.3 + Y1.1.9.3  = 1
 id1663: Y1.2.0.0 + Y1.2.1.0 + Y1.2.2.0 + Y1.2.3.0 + Y1.2.4.0 + Y1.2.5.0
         + Y1.2.6.0 + Y1.2.7.0 + Y1.2.8.0 + Y1.2.9.0  = 1
 id1665: Y1.2.0.1 + Y1.2.1.1 + Y1.2.2.1 + Y1.2.3.1 + Y1.2.4.1 + Y1.2.5.1
         + Y1.2.6.1 + Y1.2.7.1 + Y1.2.8.1 + Y1.2.9.1  = 1
 id1667: Y1.2.0.2 + Y1.2.1.2 + Y1.2.2.2 + Y1.2.3.2 + Y1.2.4.2 + Y1.2.5.2
         + Y1.2.6.2 + Y1.2.7.2 + Y1.2.8.2 + Y1.2.9.2  = 1
 id1669: Y1.2.0.3 + Y1.2.1.3 + Y1.2.2.3 + Y1.2.3.3 + Y1.2.4.3 + Y1.2.5.3
         + Y1.2.6.3 + Y1.2.7.3 + Y1.2.8.3 + Y1.2.9.3  = 1
 id1671: Y1.3.0.0 + Y1.3.1.0 + Y1.3.2.0 + Y1.3.3.0 + Y1.3.4.0 + Y1.3.5.0
         + Y1.3.6.0 + Y1.3.7.0 + Y1.3.8.0 + Y1.3.9.0  = 1
 id1673: Y1.3.0.1 + Y1.3.1.1 + Y1.3.2.1 + Y1.3.3.1 + Y1.3.4.1 + Y1.3.5.1
         + Y1.3.6.1 + Y1.3.7.1 + Y1.3.8.1 + Y1.3.9.1  = 1
 id1675: Y1.3.0.2 + Y1.3.1.2 + Y1.3.2.2 + Y1.3.3.2 + Y1.3.4.2 + Y1.3.5.2
         + Y1.3.6.2 + Y1.3.7.2 + Y1.3.8.2 + Y1.3.9.2  = 1
 id1677: Y1.3.0.3 + Y1.3.1.3 + Y1.3.2.3 + Y1.3.3.3 + Y1.3.4.3 + Y1.3.5.3
         + Y1.3.6.3 + Y1.3.7.3 + Y1.3.8.3 + Y1.3.9.3  = 1
 id1679: Y1.4.0.0 + Y1.4.1.0 + Y1.4.2.0 + Y1.4.3.0 + Y1.4.4.0 + Y1.4.5.0
         + Y1.4.6.0 + Y1.4.7.0 + Y1.4.8.0 + Y1.4.9.0  = 1
 id1681: Y1.4.0.1 + Y1.4.1.1 + Y1.4.2.1 + Y1.4.3.1 + Y1.4.4.1 + Y1.4.5.1
         + Y1.4.6.1 + Y1.4.7.1 + Y1.4.8.1 + Y1.4.9.1  = 1
 id1683: Y1.4.0.2 + Y1.4.1.2 + Y1.4.2.2 + Y1.4.3.2 + Y1.4.4.2 + Y1.4.5.2
         + Y1.4.6.2 + Y1.4.7.2 + Y1.4.8.2 + Y1.4.9.2  = 1
 id1685: Y1.4.0.3 + Y1.4.1.3 + Y1.4.2.3 + Y1.4.3.3 + Y1.4.4.3 + Y1.4.5.3
         + Y1.4.6.3 + Y1.4.7.3 + Y1.4.8.3 + Y1.4.9.3  = 1
 id1687: Y1.5.0.0 + Y1.5.1.0 + Y1.5.2.0 + Y1.5.3.0 + Y1.5.4.0 + Y1.5.5.0
         + Y1.5.6.0 + Y1.5.7.0 + Y1.5.8.0 + Y1.5.9.0  = 1
 id1689: Y1.5.0.1 + Y1.5.1.1 + Y1.5.2.1 + Y1.5.3.1 + Y1.5.4.1 + Y1.5.5.1
         + Y1.5.6.1 + Y1.5.7.1 + Y1.5.8.1 + Y1.5.9.1  = 1
 id1691: Y1.5.0.2 + Y1.5.1.2 + Y1.5.2.2 + Y1.5.3.2 + Y1.5.4.2 + Y1.5.5.2
         + Y1.5.6.2 + Y1.5.7.2 + Y1.5.8.2 + Y1.5.9.2  = 1
 id1693: Y1.5.0.3 + Y1.5.1.3 + Y1.5.2.3 + Y1.5.3.3 + Y1.5.4.3 + Y1.5.5.3
         + Y1.5.6.3 + Y1.5.7.3 + Y1.5.8.3 + Y1.5.9.3  = 1
 id1695: Y1.6.0.0 + Y1.6.1.0 + Y1.6.2.0 + Y1.6.3.0 + Y1.6.4.0 + Y1.6.5.0
         + Y1.6.6.0 + Y1.6.7.0 + Y1.6.8.0 + Y1.6.9.0  = 1
 id1697: Y1.6.0.1 + Y1.6.1.1 + Y1.6.2.1 + Y1.6.3.1 + Y1.6.4.1 + Y1.6.5.1
         + Y1.6.6.1 + Y1.6.7.1 + Y1.6.8.1 + Y1.6.9.1  = 1
 id1699: Y1.6.0.2 + Y1.6.1.2 + Y1.6.2.2 + Y1.6.3.2 + Y1.6.4.2 + Y1.6.5.2
         + Y1.6.6.2 + Y1.6.7.2 + Y1.6.8.2 + Y1.6.9.2  = 1
 id1701: Y1.6.0.3 + Y1.6.1.3 + Y1.6.2.3 + Y1.6.3.3 + Y1.6.4.3 + Y1.6.5.3
         + Y1.6.6.3 + Y1.6.7.3 + Y1.6.8.3 + Y1.6.9.3  = 1
 id1703: Y1.7.0.0 + Y1.7.1.0 + Y1.7.2.0 + Y1.7.3.0 + Y1.7.4.0 + Y1.7.5.0
         + Y1.7.6.0 + Y1.7.7.0 + Y1.7.8.0 + Y1.7.9.0  = 1
 id1705: Y1.7.0.1 + Y1.7.1.1 + Y1.7.2.1 + Y1.7.3.1 + Y1.7.4.1 + Y1.7.5.1
         + Y1.7.6.1 + Y1.7.7.1 + Y1.7.8.1 + Y1.7.9.1  = 1
 id1707: Y1.7.0.2 + Y1.7.1.2 + Y1.7.2.2 + Y1.7.3.2 + Y1.7.4.2 + Y1.7.5.2
         + Y1.7.6.2 + Y1.7.7.2 + Y1.7.8.2 + Y1.7.9.2  = 1
 id1709: Y1.7.0.3 + Y1.7.1.3 + Y1.7.2.3 + Y1.7.3.3 + Y1.7.4.3 + Y1.7.5.3
         + Y1.7.6.3 + Y1.7.7.3 + Y1.7.8.3 + Y1.7.9.3  = 1
 id1711: Y1.8.0.0 + Y1.8.1.0 + Y1.8.2.0 + Y1.8.3.0 + Y1.8.4.0 + Y1.8.5.0
         + Y1.8.6.0 + Y1.8.7.0 + Y1.8.8.0 + Y1.8.9.0  = 1
 id1713: Y1.8.0.1 + Y1.8.1.1 + Y1.8.2.1 + Y1.8.3.1 + Y1.8.4.1 + Y1.8.5.1
         + Y1.8.6.1 + Y1.8.7.1 + Y1.8.8.1 + Y1.8.9.1  = 1
 id1715: Y1.8.0.2 + Y1.8.1.2 + Y1.8.2.2 + Y1.8.3.2 + Y1.8.4.2 + Y1.8.5.2
         + Y1.8.6.2 + Y1.8.7.2 + Y1.8.8.2 + Y1.8.9.2  = 1
 id1717: Y1.8.0.3 + Y1.8.1.3 + Y1.8.2.3 + Y1.8.3.3 + Y1.8.4.3 + Y1.8.5.3
         + Y1.8.6.3 + Y1.8.7.3 + Y1.8.8.3 + Y1.8.9.3  = 1
 id1719: Y1.9.0.0 + Y1.9.1.0 + Y1.9.2.0 + Y1.9.3.0 + Y1.9.4.0 + Y1.9.5.0
         + Y1.9.6.0 + Y1.9.7.0 + Y1.9.8.0 + Y1.9.9.0  = 1
 id1721: Y1.9.0.1 + Y1.9.1.1 + Y1.9.2.1 + Y1.9.3.1 + Y1.9.4.1 + Y1.9.5.1
         + Y1.9.6.1 + Y1.9.7.1 + Y1.9.8.1 + Y1.9.9.1  = 1
 id1723: Y1.9.0.2 + Y1.9.1.2 + Y1.9.2.2 + Y1.9.3.2 + Y1.9.4.2 + Y1.9.5.2
         + Y1.9.6.2 + Y1.9.7.2 + Y1.9.8.2 + Y1.9.9.2  = 1
 id1725: Y1.9.0.3 + Y1.9.1.3 + Y1.9.2.3 + Y1.9.3.3 + Y1.9.4.3 + Y1.9.5.3
         + Y1.9.6.3 + Y1.9.7.3 + Y1.9.8.3 + Y1.9.9.3  = 1
Bounds
 0 <= X1.0 <= 4
 0 <= X1.1 <= 4
 0 <= X1.2 <= 4
 0 <= X1.3 <= 4
 0 <= X1.4 <= 4
 0 <= X1.5 <= 4
 0 <= X1.6 <= 4
 0 <= X1.7 <= 4
 0 <= X1.8 <= 4
 0 <= X1.9 <= 4
 0 <= Y1.0.0.0 <= 1
 0 <= Y1.0.0.1 <= 1
 0 <= Y1.0.0.2 <= 1
 0 <= Y1.0.0.3 <= 1
 0 <= Y1.0.1.0 <= 1
 0 <= Y1.0.1.1 <= 1
 0 <= Y1.0.1.2 <= 1
 0 <= Y1.0.1.3 <= 1
 0 <= Y1.0.2.0 <= 1
 0 <= Y1.0.2.1 <= 1
 0 <= Y1.0.2.2 <= 1
 0 <= Y1.0.2.3 <= 1
 0 <= Y1.0.3.0 <= 1
 0 <= Y1.0.3.1 <= 1
 0 <= Y1.0.3.2 <= 1
 0 <= Y1.0.3.3 <= 1
 0 <= Y1.0.4.0 <= 1
 0 <= Y1.0.4.1 <= 1
 0 <= Y1.0.4.2 <= 1
 0 <= Y1.0.4.3 <= 1
 0 <= Y1.0.5.0 <= 1
 0 <= Y1.0.5.1 <= 1
 0 <= Y1.0.5.2 <= 1
 0 <= Y1.0.5.3 <= 1
 0 <= Y1.0.6.0 <= 1
 0 <= Y1.0.6.1 <= 1
 0 <= Y1.0.6.2 <= 1
 0 <= Y1.0.6.3 <= 1
 0 <= Y1.0.7.0 <= 1
 0 <= Y1.0.7.1 <= 1
 0 <= Y1.0.7.2 <= 1
 0 <= Y1.0.7.3 <= 1
 0 <= Y1.0.8.0 <= 1
 0 <= Y1.0.8.1 <= 1
 0 <= Y1.0.8.2 <= 1
 0 <= Y1.0.8.3 <= 1
 0 <= Y1.0.9.0 <= 1
 0 <= Y1.0.9.1 <= 1
 0 <= Y1.0.9.2 <= 1
 0 <= Y1.0.9.3 <= 1
 0 <= Y1.1.0.0 <= 1
 0 <= Y1.1.0.1 <= 1
 0 <= Y1.1.0.2 <= 1
 0 <= Y1.1.0.3 <= 1
 0 <= Y1.1.1.0 <= 1
 0 <= Y1.1.1.1 <= 1
 0 <= Y1.1.1.2 <= 1
 0 <= Y1.1.1.3 <= 1
 0 <= Y1.1.2.0 <= 1
 0 <= Y1.1.2.1 <= 1
 0 <= Y1.1.2.2 <= 1
 0 <= Y1.1.2.3 <= 1
 0 <= Y1.1.3.0 <= 1
 0 <= Y1.1.3.1 <= 1
 0 <= Y1.1.3.2 <= 1
 0 <= Y1.1.3.3 <= 1
 0 <= Y1.1.4.0 <= 1
 0 <= Y1.1.4.1 <= 1
 0 <= Y1.1.4.2 <= 1
 0 <= Y1.1.4.3 <= 1
 0 <= Y1.1.5.0 <= 1
 0 <= Y1.1.5.1 <= 1
 0 <= Y1.1.5.2 <= 1
 0 <= Y1.1.5.3 <= 1
 0 <= Y1.1.6.0 <= 1
 0 <= Y1.1.6.1 <= 1
 0 <= Y1.1.6.2 <= 1
 0 <= Y1.1.6.3 <= 1
 0 <= Y1.1.7.0 <= 1
 0 <= Y1.1.7.1 <= 1
 0 <= Y1.1.7.2 <= 1
 0 <= Y1.1.7.3 <= 1
 0 <= Y1.1.8.0 <= 1
 0 <= Y1.1.8.1 <= 1
 0 <= Y1.1.8.2 <= 1
 0 <= Y1.1.8.3 <= 1
 0 <= Y1.1.9.0 <= 1
 0 <= Y1.1.9.1 <= 1
 0 <= Y1.1.9.2 <= 1
 0 <= Y1.1.9.3 <= 1
 0 <= Y1.2.0.0 <= 1
 0 <= Y1.2.0.1 <= 1
 0 <= Y1.2.0.2 <= 1
 0 <= Y1.2.0.3 <= 1
 0 <= Y1.2.1.0 <= 1
 0 <= Y1.2.1.1 <= 1
 0 <= Y1.2.1.2 <= 1
 0 <= Y1.2.1.3 <= 1
 0 <= Y1.2.2.0 <= 1
 0 <= Y1.2.2.1 <= 1
 0 <= Y1.2.2.2 <= 1
 0 <= Y1.2.2.3 <= 1
 0 <= Y1.2.3.0 <= 1
 0 <= Y1.2.3.1 <= 1
 0 <= Y1.2.3.2 <= 1
 0 <= Y1.2.3.3 <= 1
 0 <= Y1.2.4.0 <= 1
 0 <= Y1.2.4.1 <= 1
 0 <= Y1.2.4.2 <= 1
 0 <= Y1.2.4.3 <= 1
 0 <= Y1.2.5.0 <= 1
 0 <= Y1.2.5.1 <= 1
 0 <= Y1.2.5.2 <= 1
 0 <= Y1.2.5.3 <= 1
 0 <= Y1.2.6.0 <= 1
 0 <= Y1.2.6.1 <= 1
 0 <= Y1.2.6.2 <= 1
 0 <= Y1.2.6.3 <= 1
 0 <= Y1.2.7.0 <= 1
 0 <= Y1.2.7.1 <= 1
 0 <= Y1.2.7.2 <= 1
 0 <= Y1.2.7.3 <= 1
 0 <= Y1.2.8.0 <= 1
 0 <= Y1.2.8.1 <= 1
 0 <= Y1.2.8.2 <= 1
 0 <= Y1.2.8.3 <= 1
 0 <= Y1.2.9.0 <= 1
 0 <= Y1.2.9.1 <= 1
 0 <= Y1.2.9.2 <= 1
 0 <= Y1.2.9.3 <= 1
 0 <= Y1.3.0.0 <= 1
 0 <= Y1.3.0.1 <= 1
 0 <= Y1.3.0.2 <= 1
 0 <= Y1.3.0.3 <= 1
 0 <= Y1.3.1.0 <= 1
 0 <= Y1.3.1.1 <= 1
 0 <= Y1.3.1.2 <= 1
 0 <= Y1.3.1.3 <= 1
 0 <= Y1.3.2.0 <= 1
 0 <= Y1.3.2.1 <= 1
 0 <= Y1.3.2.2 <= 1
 0 <= Y1.3.2.3 <= 1
 0 <= Y1.3.3.0 <= 1
 0 <= Y1.3.3.1 <= 1
 0 <= Y1.3.3.2 <= 1
 0 <= Y1.3.3.3 <= 1
 0 <= Y1.3.4.0 <= 1
 0 <= Y1.3.4.1 <= 1
 0 <= Y1.3.4.2 <= 1
 0 <= Y1.3.4.3 <= 1
 0 <= Y1.3.5.0 <= 1
 0 <= Y1.3.5.1 <= 1
 0 <= Y1.3.5.2 <= 1
 0 <= Y1.3.5.3 <= 1
 0 <= Y1.3.6.0 <= 1
 0 <= Y1.3.6.1 <= 1
 0 <= Y1.3.6.2 <= 1
 0 <= Y1.3.6.3 <= 1
 0 <= Y1.3.7.0 <= 1
 0 <= Y1.3.7.1 <= 1
 0 <= Y1.3.7.2 <= 1
 0 <= Y1.3.7.3 <= 1
 0 <= Y1.3.8.0 <= 1
 0 <= Y1.3.8.1 <= 1
 0 <= Y1.3.8.2 <= 1
 0 <= Y1.3.8.3 <= 1
 0 <= Y1.3.9.0 <= 1
 0 <= Y1.3.9.1 <= 1
 0 <= Y1.3.9.2 <= 1
 0 <= Y1.3.9.3 <= 1
 0 <= Y1.4.0.0 <= 1
 0 <= Y1.4.0.1 <= 1
 0 <= Y1.4.0.2 <= 1
 0 <= Y1.4.0.3 <= 1
 0 <= Y1.4.1.0 <= 1
 0 <= Y1.4.1.1 <= 1
 0 <= Y1.4.1.2 <= 1
 0 <= Y1.4.1.3 <= 1
 0 <= Y1.4.2.0 <= 1
 0 <= Y1.4.2.1 <= 1
 0 <= Y1.4.2.2 <= 1
 0 <= Y1.4.2.3 <= 1
 0 <= Y1.4.3.0 <= 1
 0 <= Y1.4.3.1 <= 1
 0 <= Y1.4.3.2 <= 1
 0 <= Y1.4.3.3 <= 1
 0 <= Y1.4.4.0 <= 1
 0 <= Y1.4.4.1 <= 1
 0 <= Y1.4.4.2 <= 1
 0 <= Y1.4.4.3 <= 1
 0 <= Y1.4.5.0 <= 1
 0 <= Y1.4.5.1 <= 1
 0 <= Y1.4.5.2 <= 1
 0 <= Y1.4.5.3 <= 1
 0 <= Y1.4.6.0 <= 1
 0 <= Y1.4.6.1 <= 1
 0 <= Y1.4.6.2 <= 1
 0 <= Y1.4.6.3 <= 1
 0 <= Y1.4.7.0 <= 1
 0 <= Y1.4.7.1 <= 1
 0 <= Y1.4.7.2 <= 1
 0 <= Y1.4.7.3 <= 1
 0 <= Y1.4.8.0 <= 1
 0 <= Y1.4.8.1 <= 1
 0 <= Y1.4.8.2 <= 1
 0 <= Y1.4.8.3 <= 1
 0 <= Y1.4.9.0 <= 1
 0 <= Y1.4.9.1 <= 1
 0 <= Y1.4.9.2 <= 1
 0 <= Y1.4.9.3 <= 1
 0 <= Y1.5.0.0 <= 1
 0 <= Y1.5.0.1 <= 1
 0 <= Y1.5.0.2 <= 1
 0 <= Y1.5.0.3 <= 1
 0 <= Y1.5.1.0 <= 1
 0 <= Y1.5.1.1 <= 1
 0 <= Y1.5.1.2 <= 1
 0 <= Y1.5.1.3 <= 1
 0 <= Y1.5.2.0 <= 1
 0 <= Y1.5.2.1 <= 1
 0 <= Y1.5.2.2 <= 1
 0 <= Y1.5.2.3 <= 1
 0 <= Y1.5.3.0 <= 1
 0 <= Y1.5.3.1 <= 1
 0 <= Y1.5.3.2 <= 1
 0 <= Y1.5.3.3 <= 1
 0 <= Y1.5.4.0 <= 1
 0 <= Y1.5.4.1 <= 1
 0 <= Y1.5.4.2 <= 1
 0 <= Y1.5.4.3 <= 1
 0 <= Y1.5.5.0 <= 1
 0 <= Y1.5.5.1 <= 1
 0 <= Y1.5.5.2 <= 1
 0 <= Y1.5.5.3 <= 1
 0 <= Y1.5.6.0 <= 1
 0 <= Y1.5.6.1 <= 1
 0 <= Y1.5.6.2 <= 1
 0 <= Y1.5.6.3 <= 1
 0 <= Y1.5.7.0 <= 1
 0 <= Y1.5.7.1 <= 1
 0 <= Y1.5.7.2 <= 1
 0 <= Y1.5.7.3 <= 1
 0 <= Y1.5.8.0 <= 1
 0 <= Y1.5.8.1 <= 1
 0 <= Y1.5.8.2 <= 1
 0 <= Y1.5.8.3 <= 1
 0 <= Y1.5.9.0 <= 1
 0 <= Y1.5.9.1 <= 1
 0 <= Y1.5.9.2 <= 1
 0 <= Y1.5.9.3 <= 1
 0 <= Y1.6.0.0 <= 1
 0 <= Y1.6.0.1 <= 1
 0 <= Y1.6.0.2 <= 1
 0 <= Y1.6.0.3 <= 1
 0 <= Y1.6.1.0 <= 1
 0 <= Y1.6.1.1 <= 1
 0 <= Y1.6.1.2 <= 1
 0 <= Y1.6.1.3 <= 1
 0 <= Y1.6.2.0 <= 1
 0 <= Y1.6.2.1 <= 1
 0 <= Y1.6.2.2 <= 1
 0 <= Y1.6.2.3 <= 1
 0 <= Y1.6.3.0 <= 1
 0 <= Y1.6.3.1 <= 1
 0 <= Y1.6.3.2 <= 1
 0 <= Y1.6.3.3 <= 1
 0 <= Y1.6.4.0 <= 1
 0 <= Y1.6.4.1 <= 1
 0 <= Y1.6.4.2 <= 1
 0 <= Y1.6.4.3 <= 1
 0 <= Y1.6.5.0 <= 1
 0 <= Y1.6.5.1 <= 1
 0 <= Y1.6.5.2 <= 1
 0 <= Y1.6.5.3 <= 1
 0 <= Y1.6.6.0 <= 1
 0 <= Y1.6.6.1 <= 1
 0 <= Y1.6.6.2 <= 1
 0 <= Y1.6.6.3 <= 1
 0 <= Y1.6.7.0 <= 1
 0 <= Y1.6.7.1 <= 1
 0 <= Y1.6.7.2 <= 1
 0 <= Y1.6.7.3 <= 1
 0 <= Y1.6.8.0 <= 1
 0 <= Y1.6.8.1 <= 1
 0 <= Y1.6.8.2 <= 1
 0 <= Y1.6.8.3 <= 1
 0 <= Y1.6.9.0 <= 1
 0 <= Y1.6.9.1 <= 1
 0 <= Y1.6.9.2 <= 1
 0 <= Y1.6.9.3 <= 1
 0 <= Y1.7.0.0 <= 1
 0 <= Y1.7.0.1 <= 1
 0 <= Y1.7.0.2 <= 1
 0 <= Y1.7.0.3 <= 1
 0 <= Y1.7.1.0 <= 1
 0 <= Y1.7.1.1 <= 1
 0 <= Y1.7.1.2 <= 1
 0 <= Y1.7.1.3 <= 1
 0 <= Y1.7.2.0 <= 1
 0 <= Y1.7.2.1 <= 1
 0 <= Y1.7.2.2 <= 1
 0 <= Y1.7.2.3 <= 1
 0 <= Y1.7.3.0 <= 1
 0 <= Y1.7.3.1 <= 1
 0 <= Y1.7.3.2 <= 1
 0 <= Y1.7.3.3 <= 1
 0 <= Y1.7.4.0 <= 1
 0 <= Y1.7.4.1 <= 1
 0 <= Y1.7.4.2 <= 1
 0 <= Y1.7.4.3 <= 1
 0 <= Y1.7.5.0 <= 1
 0 <= Y1.7.5.1 <= 1
 0 <= Y1.7.5.2 <= 1
 0 <= Y1.7.5.3 <= 1
 0 <= Y1.7.6.0 <= 1
 0 <= Y1.7.6.1 <= 1
 0 <= Y1.7.6.2 <= 1
 0 <= Y1.7.6.3 <= 1
 0 <= Y1.7.7.0 <= 1
 0 <= Y1.7.7.1 <= 1
 0 <= Y1.7.7.2 <= 1
 0 <= Y1.7.7.3 <= 1
 0 <= Y1.7.8.0 <= 1
 0 <= Y1.7.8.1 <= 1
 0 <= Y1.7.8.2 <= 1
 0 <= Y1.7.8.3 <= 1
 0 <= Y1.7.9.0 <= 1
 0 <= Y1.7.9.1 <= 1
 0 <= Y1.7.9.2 <= 1
 0 <= Y1.7.9.3 <= 1
 0 <= Y1.8.0.0 <= 1
 0 <= Y1.8.0.1 <= 1
 0 <= Y1.8.0.2 <= 1
 0 <= Y1.8.0.3 <= 1
 0 <= Y1.8.1.0 <= 1
 0 <= Y1.8.1.1 <= 1
 0 <= Y1.8.1.2 <= 1
 0 <= Y1.8.1.3 <= 1
 0 <= Y1.8.2.0 <= 1
 0 <= Y1.8.2.1 <= 1
 0 <= Y1.8.2.2 <= 1
 0 <= Y1.8.2.3 <= 1
 0 <= Y1.8.3.0 <= 1
 0 <= Y1.8.3.1 <= 1
 0 <= Y1.8.3.2 <= 1
 0 <= Y1.8.3.3 <= 1
 0 <= Y1.8.4.0 <= 1
 0 <= Y1.8.4.1 <= 1
 0 <= Y1.8.4.2 <= 1
 0 <= Y1.8.4.3 <= 1
 0 <= Y1.8.5.0 <= 1
 0 <= Y1.8.5.1 <= 1
 0 <= Y1.8.5.2 <= 1
 0 <= Y1.8.5.3 <= 1
 0 <= Y1.8.6.0 <= 1
 0 <= Y1.8.6.1 <= 1
 0 <= Y1.8.6.2 <= 1
 0 <= Y1.8.6.3 <= 1
 0 <= Y1.8.7.0 <= 1
 0 <= Y1.8.7.1 <= 1
 0 <= Y1.8.7.2 <= 1
 0 <= Y1.8.7.3 <= 1
 0 <= Y1.8.8.0 <= 1
 0 <= Y1.8.8.1 <= 1
 0 <= Y1.8.8.2 <= 1
 0 <= Y1.8.8.3 <= 1
 0 <= Y1.8.9.0 <= 1
 0 <= Y1.8.9.1 <= 1
 0 <= Y1.8.9.2 <= 1
 0 <= Y1.8.9.3 <= 1
 0 <= Y1.9.0.0 <= 1
 0 <= Y1.9.0.1 <= 1
 0 <= Y1.9.0.2 <= 1
 0 <= Y1.9.0.3 <= 1
 0 <= Y1.9.1.0 <= 1
 0 <= Y1.9.1.1 <= 1
 0 <= Y1.9.1.2 <= 1
 0 <= Y1.9.1.3 <= 1
 0 <= Y1.9.2.0 <= 1
 0 <= Y1.9.2.1 <= 1
 0 <= Y1.9.2.2 <= 1
 0 <= Y1.9.2.3 <= 1
 0 <= Y1.9.3.0 <= 1
 0 <= Y1.9.3.1 <= 1
 0 <= Y1.9.3.2 <= 1
 0 <= Y1.9.3.3 <= 1
 0 <= Y1.9.4.0 <= 1
 0 <= Y1.9.4.1 <= 1
 0 <= Y1.9.4.2 <= 1
 0 <= Y1.9.4.3 <= 1
 0 <= Y1.9.5.0 <= 1
 0 <= Y1.9.5.1 <= 1
 0 <= Y1.9.5.2 <= 1
 0 <= Y1.9.5.3 <= 1
 0 <= Y1.9.6.0 <= 1
 0 <= Y1.9.6.1 <= 1
 0 <= Y1.9.6.2 <= 1
 0 <= Y1.9.6.3 <= 1
 0 <= Y1.9.7.0 <= 1
 0 <= Y1.9.7.1 <= 1
 0 <= Y1.9.7.2 <= 1
 0 <= Y1.9.7.3 <= 1
 0 <= Y1.9.8.0 <= 1
 0 <= Y1.9.8.1 <= 1
 0 <= Y1.9.8.2 <= 1
 0 <= Y1.9.8.3 <= 1
 0 <= Y1.9.9.0 <= 1
 0 <= Y1.9.9.1 <= 1
 0 <= Y1.9.9.2 <= 1
 0 <= Y1.9.9.3 <= 1
      id1832 = 0
End
